(set-info :smt-lib-version 2.6)
(set-logic UFNIA)
(set-info :source |
Generated by: Geoff Sutcliffe
Generated on: 2026-03-11
Generator: TPTPWorld
Application: Benchmarking automated theorem provers
Time limit: 120.0

These benchmarks are translations from the TPTP Library (Thousands of
Problems for Theorem Provers), see http://www.cs.miami.edu/~tptp/

The TPTP is maintained by Geoff Sutcliffe, and he contributed this
selection of benchmarks to SMT-LIB.  They were exported from the
v9.2.1 realease of TPTP.
|)
(set-info :category "industrial")
(set-info :status unknown)
; SZS status Success
(declare-sort $$unsorted 0)
(declare-sort tptp.uni 0)
(declare-sort tptp.ty 0)
(declare-fun tptp.sort1 (tptp.ty tptp.uni) Bool)
(declare-fun tptp.witness1 (tptp.ty) tptp.uni)
(assert (forall ((A tptp.ty)) (tptp.sort1 A (tptp.witness1 A))))
(declare-fun tptp.int () tptp.ty)
(declare-fun tptp.real () tptp.ty)
(declare-sort tptp.bool1 0)
(declare-fun tptp.bool () tptp.ty)
(declare-fun tptp.true1 () tptp.bool1)
(declare-fun tptp.false1 () tptp.bool1)
(declare-fun tptp.match_bool1 (tptp.ty tptp.bool1 tptp.uni tptp.uni) tptp.uni)
(assert (forall ((A tptp.ty) (X tptp.bool1) (X1 tptp.uni) (X2 tptp.uni)) (tptp.sort1 A (tptp.match_bool1 A X X1 X2))))
(assert (forall ((A tptp.ty) (Z tptp.uni) (Z1 tptp.uni)) (=> (tptp.sort1 A Z) (= (tptp.match_bool1 A tptp.true1 Z Z1) Z))))
(assert (forall ((A tptp.ty) (Z tptp.uni) (Z1 tptp.uni)) (=> (tptp.sort1 A Z1) (= (tptp.match_bool1 A tptp.false1 Z Z1) Z1))))
(assert (not (= tptp.true1 tptp.false1)))
(assert (forall ((U tptp.bool1)) (or (= U tptp.true1) (= U tptp.false1))))
(declare-sort tptp.tuple02 0)
(declare-fun tptp.tuple0 () tptp.ty)
(declare-fun tptp.tuple03 () tptp.tuple02)
(assert (forall ((U tptp.tuple02)) (= U tptp.tuple03)))
(declare-fun tptp.qtmark () tptp.ty)
(assert (forall ((X Int) (Y Int) (Z Int)) (=> (<= X Y) (=> (<= 0 Z) (<= (* X Z) (* Y Z))))))
(declare-fun tptp.map (tptp.ty tptp.ty) tptp.ty)
(declare-fun tptp.get (tptp.ty tptp.ty tptp.uni tptp.uni) tptp.uni)
(assert (forall ((A tptp.ty) (B tptp.ty) (X tptp.uni) (X1 tptp.uni)) (tptp.sort1 B (tptp.get B A X X1))))
(declare-fun tptp.set (tptp.ty tptp.ty tptp.uni tptp.uni tptp.uni) tptp.uni)
(assert (forall ((A tptp.ty) (B tptp.ty) (X tptp.uni) (X1 tptp.uni) (X2 tptp.uni)) (tptp.sort1 (tptp.map A B) (tptp.set B A X X1 X2))))
(declare-sort tptp.map_int_int 0)
(declare-fun tptp.set2 (tptp.map_int_int Int Int) tptp.map_int_int)
(declare-fun tptp.t2tb (tptp.map_int_int) tptp.uni)
(assert (forall ((X tptp.map_int_int)) (tptp.sort1 (tptp.map tptp.int tptp.int) (tptp.t2tb X))))
(declare-fun tptp.tb2t (tptp.uni) tptp.map_int_int)
(assert (forall ((I tptp.map_int_int)) (= (tptp.tb2t (tptp.t2tb I)) I)))
(assert (forall ((J tptp.uni)) (= (tptp.t2tb (tptp.tb2t J)) J)))
(declare-fun tptp.t2tb1 (Int) tptp.uni)
(assert (forall ((X Int)) (tptp.sort1 tptp.int (tptp.t2tb1 X))))
(declare-fun tptp.tb2t1 (tptp.uni) Int)
(assert (forall ((I Int)) (= (tptp.tb2t1 (tptp.t2tb1 I)) I)))
(assert (forall ((J tptp.uni)) (= (tptp.t2tb1 (tptp.tb2t1 J)) J)))
(assert (forall ((M tptp.map_int_int) (A1 Int) (A2 Int) (B Int)) (=> (= A1 A2) (= (tptp.tb2t1 (tptp.get tptp.int tptp.int (tptp.t2tb (tptp.set2 M A1 B)) (tptp.t2tb1 A2))) B))))
(assert (forall ((A tptp.ty) (B tptp.ty) (M tptp.uni) (A1 tptp.uni) (A2 tptp.uni) (B1 tptp.uni)) (=> (tptp.sort1 B B1) (=> (= A1 A2) (= (tptp.get B A (tptp.set B A M A1 B1) A2) B1)))))
(assert (forall ((M tptp.map_int_int) (A1 Int) (A2 Int) (B Int)) (let ((_let_1 (tptp.t2tb1 A2))) (=> (not (= A1 A2)) (= (tptp.tb2t1 (tptp.get tptp.int tptp.int (tptp.t2tb (tptp.set2 M A1 B)) _let_1)) (tptp.tb2t1 (tptp.get tptp.int tptp.int (tptp.t2tb M) _let_1)))))))
(assert (forall ((A tptp.ty) (B tptp.ty) (M tptp.uni) (A1 tptp.uni) (A2 tptp.uni)) (=> (tptp.sort1 A A1) (=> (tptp.sort1 A A2) (forall ((B1 tptp.uni)) (=> (not (= A1 A2)) (= (tptp.get B A (tptp.set B A M A1 B1) A2) (tptp.get B A M A2))))))))
(declare-fun tptp.const (tptp.ty tptp.ty tptp.uni) tptp.uni)
(assert (forall ((A tptp.ty) (B tptp.ty) (X tptp.uni)) (tptp.sort1 (tptp.map A B) (tptp.const B A X))))
(assert (forall ((A tptp.ty) (B tptp.ty) (B1 tptp.uni) (A1 tptp.uni)) (=> (tptp.sort1 B B1) (= (tptp.get B A (tptp.const B A B1) A1) B1))))
(declare-fun tptp.ref (tptp.ty) tptp.ty)
(declare-fun tptp.mk_ref (tptp.ty tptp.uni) tptp.uni)
(assert (forall ((A tptp.ty) (X tptp.uni)) (tptp.sort1 (tptp.ref A) (tptp.mk_ref A X))))
(declare-fun tptp.contents (tptp.ty tptp.uni) tptp.uni)
(assert (forall ((A tptp.ty) (X tptp.uni)) (tptp.sort1 A (tptp.contents A X))))
(assert (forall ((A tptp.ty) (U tptp.uni)) (=> (tptp.sort1 A U) (= (tptp.contents A (tptp.mk_ref A U)) U))))
(assert (forall ((A tptp.ty) (U tptp.uni)) (=> (tptp.sort1 (tptp.ref A) U) (= U (tptp.mk_ref A (tptp.contents A U))))))
(declare-fun tptp.a1 () Int)
(declare-fun tptp.separation1 (Int) Bool)
(assert (forall ((Fp Int)) (= (tptp.separation1 Fp) (< (+ tptp.a1 10) (- Fp 24)))))
(declare-fun tptp.inv1 (tptp.map_int_int) Bool)
(assert (forall ((Mem tptp.map_int_int)) (= (tptp.inv1 Mem) (and (= (tptp.tb2t1 (tptp.get tptp.int tptp.int (tptp.t2tb Mem) (tptp.t2tb1 tptp.a1))) 0) (forall ((K Int)) (=> (and (<= 1 K) (<= K 10)) (< 0 (tptp.tb2t1 (tptp.get tptp.int tptp.int (tptp.t2tb Mem) (tptp.t2tb1 (+ tptp.a1 K)))))))))))
(declare-fun tptp.inv_l21 (tptp.map_int_int Int Int) Bool)
(assert (forall ((Mem tptp.map_int_int) (Fp Int) (L4 Int)) (let ((_let_1 (tptp.tb2t1 (tptp.get tptp.int tptp.int (tptp.t2tb Mem) (tptp.t2tb1 (- Fp 16)))))) (= (tptp.inv_l21 Mem Fp L4) (and (<= 2 _let_1) (<= _let_1 11) (= L4 (- _let_1 2)) (tptp.inv1 Mem))))))
(assert (not (forall ((Fp Int) (Mem tptp.map_int_int)) (=> (and (tptp.separation1 Fp) (tptp.inv1 Mem)) (forall ((L4 Int)) (=> (= L4 0) (forall ((L7 Int)) (=> (= L7 0) (forall ((R3 Int)) (=> (= R3 2) (forall ((Mem1 tptp.map_int_int)) (=> (= Mem1 (tptp.set2 Mem (- Fp 16) R3)) (tptp.inv_l21 Mem1 Fp L4)))))))))))))
(check-sat)
(exit)
